! DEF2-TZVP
%output Print [ P_Overlap ] 1 end
* xyz 2 5
67      -0.481889388     -1.733341381     -3.682293394
17       1.462607525     -1.387897367     -1.824387550
*
