! def2-tzvp HF 
%output 
Print [ P_Overlap ] 1 
Print [ P_MOs ] 1
end
* xyz 0 1
F 0.0 0.0 0.0
F 0.2 0.3 0.4
*
