! def2-tzvp HF
%output Print [ P_Overlap ] 1 end
* xyz 0 1
F 0.0 0.0 0.0
F 0.5 0.0 0.0
*
