! def2-tzvp HF
%output Print [ P_Overlap ] 1 end
* xyz 0 1
H 0.0 0.0 0.0
H 0.5 0.0 0.0
*
