! sto-3g HF
%output Print [ P_Overlap ] 1 end
* xyz 0 1
H 0.0 0.0 0.0
H 0.2 0.3 0.4
*
